 37  98   0   0  21  81   0  86   0  31  57  58  92   0   0   1  78   0  94   0   0  85   0  16  22  70  73  51  52  83   0   0  66  80  60   2  29  45  89   0   0  32   0  82   0 
 50   0   0   0   0   0   0   0   0   0   0   0  42  43   0   0  75   0   0   3   0  84   0   0   0  39   0 100   0   0  65   0   0   0   0   0   0   0  46  10  35   0   5   0  79 
  0   0   0  59   0  27   0   9  30  87   0   0   0   0   0  13   0   0   0   0  97   0   0   0   0   0  34   0   0   0   0   0   0   0   0   0   0  41   0   0   0   0  25   0   0 
 68   0  96   0   0   7   0   0  26   0   0  71   0  38   0   0   0  69   0   0  28  99   0   0  14   0   0  90   0   0  95   0   0   0   0  20   0  61  53   0   0  56  11   0   0 
  0  91   0   0   0  54  63   8  23  77  17   0  93   0   0  36   0  62  74  67   0  88   0   0  33   0  12  72   4   0  40  19   6  76  48  24  55   0   0  47  44  15  49  64  18 
